lbl,CUST NO.,READY TIME,XCOORD.,YCOORD.,DEMAND,DUE DATE,SERVICE TIME
11,32,84,129,9,10,264,90
11,171,92,135,6,30,272,90
11,65,185,135,3,20,365,90
11,86,278,135,0,10,458,90
11,115,369,136,0,30,549,90
11,94,462,137,3,20,642,90
11,51,555,137,6,10,735,90
11,174,649,139,10,30,829,90
11,136,746,133,12,10,926,90
11,189,838,131,11,10,1018,90
